NAME: CMT5_7
TYPE: CVRP
COMMENT: 1291.29 - Cluster Nr.7
DIMENSION: 14
CAPACITY: 200
EDGE_WEIGHT_TYPE: EUC_2D
NODE_COORD_TYPE: TWOD_COORDS
NODE_COORD_SECTION: 
1 41 37
12 38 46
2 35 51
9 37 47
14 35 35
8 42 41
10 35 40
5 30 48
3 31 32
4 27 43
6 32 39
7 33 44
11 41 46
13 33 34
DEPOT_SECTION: 
14
-1
DEMAND_SECTION: 
4 9
12 12
3 29
6 5
8 19
2 16
11 18
7 20
14 0
5 15
9 6
10 16
13 19
1 16
EOF
